;(set-option :produce-unsat-cores true )
(set-logic ALL_SUPPORTED )
(declare-sort N$ 0 )
(declare-sort T$ 0 )
(declare-sort Dtree$ 0 )
(declare-sort N_set$ 0 )
(declare-sort Dtree_N_fun$ 0 )
(declare-sort Dtree_dtree_fun$ 0 )
(declare-sort T_dtree_sum_set$ 0 )
(declare-sort Dtree_T_dtree_sum_set_fun$ 0 )
(declare-sort T_dtree_sum$ 0)
(declare-fun projl$ (T_dtree_sum$)T$)
(declare-fun inl$ (T$ )T_dtree_sum$)
(declare-fun projr$ (T_dtree_sum$)Dtree$)
(declare-fun inr$ (Dtree$ )T_dtree_sum$)
(declare-fun t$ ()T$ )
(declare-fun ns$ ()N_set$ )
(declare-fun tr$ ()Dtree$ )
(declare-fun wf$ (Dtree$ )Bool )
(declare-fun tr0$ ()Dtree$ )
(declare-fun tr1$ ()Dtree$ )
(declare-fun cont$ (Dtree$ )T_dtree_sum_set$ )
(declare-fun inFr$ (N_set$ Dtree$ T$ )Bool )
(declare-fun root$ (Dtree$ )N$ )
(declare-fun hsubst$ (Dtree$ )Dtree_dtree_fun$ )
(declare-fun member$ (T_dtree_sum$ T_dtree_sum_set$ )Bool )
(declare-fun unfold$ (Dtree_N_fun$ Dtree_T_dtree_sum_set_fun$ )Dtree_dtree_fun$ )
(declare-fun fun_app$ (Dtree_dtree_fun$ Dtree$ )Dtree$ )
(declare-fun member$a (N$ N_set$ )Bool )
(declare-fun fun_app$a (Dtree_T_dtree_sum_set_fun$ Dtree$ )T_dtree_sum_set$ )
(declare-fun fun_app$b (Dtree_N_fun$ Dtree$ )N$ )
(declare-fun hsubst_c$ (Dtree$ )Dtree_T_dtree_sum_set_fun$ )
(declare-fun hsubst_r$ ()Dtree_N_fun$ )
(assert (! (not (member$ (inr$ (fun_app$ (hsubst$ tr0$ )tr$ ))(cont$ (fun_app$ (hsubst$ tr0$ )tr0$ )))):named a0 ))
(assert (! (member$ (inr$ tr$ )(cont$ tr0$ )):named a1 ))
(assert (! (= tr1$ (fun_app$ (hsubst$ tr0$ )tr$ )):named a2 ))
(assert (! (forall ((?v0 Dtree$ ))(=> (and (wf$ tr0$ )(wf$ ?v0 ))(wf$ (fun_app$ (hsubst$ tr0$ )?v0 )))):named a3 ))
(assert (! (forall ((?v0 Dtree$ )(?v1 Dtree$ ))(= (= (inr$ ?v0 )(inr$ ?v1 ))(= ?v0 ?v1 ))):named a4 ))
(assert (! (forall ((?v0 Dtree$ )(?v1 Dtree$ ))(= (= (inr$ ?v0 )(inr$ ?v1 ))(= ?v0 ?v1 ))):named a5 ))
(assert (! (forall ((?v0 Dtree$ ))(=> (= (root$ ?v0 )(root$ tr0$ ))(= (fun_app$ (hsubst$ tr0$ )?v0 )(fun_app$ (hsubst$ tr0$ )tr0$ )))):named a6 ))
(assert (! (= (hsubst$ tr0$ )(unfold$ hsubst_r$ (hsubst_c$ tr0$ ))):named a7 ))
(assert (! (member$a (root$ tr0$ )ns$ ):named a8 ))
(assert (! (forall ((?v0 Dtree$ )(?v1 Dtree$ ))(=> (= (inr$ ?v0 )(inr$ ?v1 ))(= ?v0 ?v1 ))):named a9 ))
(assert (! (forall ((?v0 Dtree$ )(?v1 Dtree$ ))(=> (not (= ?v0 ?v1 ))(not (= (inr$ ?v0 )(inr$ ?v1 ))))):named a10 ))
(assert (! (forall ((?v0 Dtree$ ))(= (root$ (fun_app$ (hsubst$ tr0$ )?v0 ))(root$ ?v0 ))):named a11 ))
(assert (! (forall ((?v0 Dtree$ ))(! (= (fun_app$a (hsubst_c$ tr0$ )?v0 )(ite (= (root$ ?v0 )(root$ tr0$ ))(cont$ tr0$ )(cont$ ?v0 ))):pattern ((fun_app$a (hsubst_c$ tr0$ )?v0 )))):named a12 ))
(assert (! (forall ((?v0 Dtree$ )(?v1 Dtree$ ))(=> (and (wf$ ?v0 )(member$ (inr$ ?v1 )(cont$ ?v0 )))(wf$ ?v1 ))):named a13 ))
(assert (! (forall ((?v0 N_set$ )(?v1 Dtree$ )(?v2 T$ ))(=> (and (inFr$ ?v0 ?v1 ?v2 )(not (member$a (root$ tr0$ )?v0 )))(inFr$ ?v0 (fun_app$ (hsubst$ tr0$ )?v1 )?v2 ))):named a14 ))
(assert (! (forall ((?v0 Dtree$ )(?v1 Dtree$ )(?v2 Dtree$ ))(=> (and (wf$ ?v0 )(and (member$ (inr$ ?v1 )(cont$ ?v0 ))(member$ (inr$ ?v2 )(cont$ ?v0 ))))(= (= (root$ ?v1 )(root$ ?v2 ))(= ?v1 ?v2 )))):named a15 ))
(assert (! (inFr$ ns$ tr1$ t$ ):named a16 ))
(assert (! (forall ((?v0 Dtree$ ))(! (= (fun_app$b hsubst_r$ ?v0 )(root$ ?v0 )):pattern ((fun_app$b hsubst_r$ ?v0 )))):named a17 ))
(check-sat )
;(get-unsat-core )
